block_table_value:
[[1 1 1 1 1 1 1 1]
 [1 1 1 1 1 1 1 1]
 [0 0 0 0 0 0 0 0]
 [0 0 0 0 0 0 0 0]
 [0 0 0 0 0 0 0 0]
 [0 0 0 0 0 0 0 0]
 [0 0 0 0 0 0 0 0]
 [0 0 0 0 0 0 0 0]]
Set parameter Username
Set parameter LicenseID to value 2603695
Academic license - for non-commercial use only - expires 2025-12-26
Gurobi Optimizer version 11.0.3 build v11.0.3rc0 (linux64 - "Debian GNU/Linux 12 (bookworm)")

CPU model: Intel(R) Xeon(R) Gold 6252 CPU @ 2.10GHz, instruction set [SSE2|AVX|AVX2|AVX512]
Thread count: 48 physical cores, 96 logical processors, using up to 32 threads

Optimize a model with 344 rows, 305 columns and 1120 nonzeros
Model fingerprint: 0x1732a14a
Variable types: 0 continuous, 305 integer (128 binary)
Coefficient statistics:
  Matrix range     [1e+00, 2e+00]
  Objective range  [1e+00, 1e+00]
  Bounds range     [1e+00, 1e+00]
  RHS range        [1e+00, 2e+00]
Found heuristic solution: objective 7.0000000
Presolve removed 64 rows and 48 columns
Presolve time: 0.00s
Presolved: 280 rows, 257 columns, 992 nonzeros
Variable types: 0 continuous, 257 integer (240 binary)
Found heuristic solution: objective 6.0000000

Root relaxation: objective 2.750000e+00, 363 iterations, 0.01 seconds (0.00 work units)

    Nodes    |    Current Node    |     Objective Bounds      |     Work
 Expl Unexpl |  Obj  Depth IntInf | Incumbent    BestBd   Gap | It/Node Time

     0     0    2.75000    0  183    6.00000    2.75000  54.2%     -    0s
H    0     0                       5.0000000    2.75000  45.0%     -    0s

Cutting planes:
  Gomory: 13
  Mod-K: 2
  RLT: 27

Explored 1 nodes (398 simplex iterations) in 0.04 seconds (0.02 work units)
Thread count was 32 (of 96 available processors)

Solution count 3: 5 6 7 

Optimal solution found (tolerance 1.00e-04)
Best objective 5.000000000000e+00, best bound 5.000000000000e+00, gap 0.0000%
LP solve time: 0.040045976638793945 s
Optimal value: 5.0
LP result:
x_0_0_0: 1.0
x_0_0_1: 0.0
x_0_0_2: 0.0
x_0_0_3: 0.0
x_0_0_4: 0.0
x_0_0_5: 0.0
x_0_0_6: 0.0
x_0_0_7: 0.0
x_0_1_0: 0.0
x_0_1_1: 0.0
x_0_1_2: 0.0
x_0_1_3: 0.0
x_0_1_4: 0.0
x_0_1_5: 0.0
x_0_1_6: 1.0
x_0_1_7: 0.0
x_0_2_0: 0.0
x_0_2_1: 0.0
x_0_2_2: 0.0
x_0_2_3: 0.0
x_0_2_4: 0.0
x_0_2_5: 1.0
x_0_2_6: 0.0
x_0_2_7: 0.0
x_0_3_0: 0.0
x_0_3_1: 0.0
x_0_3_2: 0.0
x_0_3_3: 0.0
x_0_3_4: 0.0
x_0_3_5: 1.0
x_0_3_6: 0.0
x_0_3_7: 0.0
x_0_4_0: 0.0
x_0_4_1: 0.0
x_0_4_2: 0.0
x_0_4_3: 0.0
x_0_4_4: 0.0
x_0_4_5: 0.0
x_0_4_6: 1.0
x_0_4_7: 0.0
x_0_5_0: 0.0
x_0_5_1: 0.0
x_0_5_2: 0.0
x_0_5_3: 0.0
x_0_5_4: 1.0
x_0_5_5: 0.0
x_0_5_6: 0.0
x_0_5_7: 0.0
x_0_6_0: 1.0
x_0_6_1: 0.0
x_0_6_2: 0.0
x_0_6_3: 0.0
x_0_6_4: 0.0
x_0_6_5: 0.0
x_0_6_6: 0.0
x_0_6_7: 0.0
x_0_7_0: 0.0
x_0_7_1: 0.0
x_0_7_2: 0.0
x_0_7_3: 0.0
x_0_7_4: 1.0
x_0_7_5: 0.0
x_0_7_6: 0.0
x_0_7_7: 0.0
x_1_0_0: 0.0
x_1_0_1: 0.0
x_1_0_2: 0.0
x_1_0_3: 1.0
x_1_0_4: 0.0
x_1_0_5: 0.0
x_1_0_6: 0.0
x_1_0_7: 0.0
x_1_1_0: 0.0
x_1_1_1: 1.0
x_1_1_2: 0.0
x_1_1_3: 0.0
x_1_1_4: 0.0
x_1_1_5: 0.0
x_1_1_6: 0.0
x_1_1_7: 0.0
x_1_2_0: 0.0
x_1_2_1: 1.0
x_1_2_2: 0.0
x_1_2_3: 0.0
x_1_2_4: 0.0
x_1_2_5: 0.0
x_1_2_6: 0.0
x_1_2_7: 0.0
x_1_3_0: 0.0
x_1_3_1: 0.0
x_1_3_2: 0.0
x_1_3_3: 0.0
x_1_3_4: 0.0
x_1_3_5: 0.0
x_1_3_6: 0.0
x_1_3_7: 1.0
x_1_4_0: 0.0
x_1_4_1: 0.0
x_1_4_2: 1.0
x_1_4_3: 0.0
x_1_4_4: 0.0
x_1_4_5: 0.0
x_1_4_6: 0.0
x_1_4_7: 0.0
x_1_5_0: 0.0
x_1_5_1: 0.0
x_1_5_2: 0.0
x_1_5_3: 1.0
x_1_5_4: 0.0
x_1_5_5: 0.0
x_1_5_6: 0.0
x_1_5_7: 0.0
x_1_6_0: 0.0
x_1_6_1: 0.0
x_1_6_2: 0.0
x_1_6_3: 0.0
x_1_6_4: 0.0
x_1_6_5: 0.0
x_1_6_6: 0.0
x_1_6_7: 1.0
x_1_7_0: 0.0
x_1_7_1: 0.0
x_1_7_2: 1.0
x_1_7_3: 0.0
x_1_7_4: 0.0
x_1_7_5: 0.0
x_1_7_6: 0.0
x_1_7_7: 0.0
a_0_0: 1.0
a_0_1: 0.0
a_0_2: 0.0
a_0_3: 0.0
a_0_4: 0.0
a_0_5: 0.0
a_0_6: 0.0
a_0_7: 0.0
a_1_0: 0.0
a_1_1: 1.0
a_1_2: 0.0
a_1_3: 0.0
a_1_4: 0.0
a_1_5: 0.0
a_1_6: 0.0
a_1_7: 0.0
a_2_0: 0.0
a_2_1: 1.0
a_2_2: -0.0
a_2_3: 0.0
a_2_4: 0.0
a_2_5: 0.0
a_2_6: 0.0
a_2_7: 0.0
a_3_0: 0.0
a_3_1: 1.0
a_3_2: 0.0
a_3_3: -0.0
a_3_4: 0.0
a_3_5: 0.0
a_3_6: 0.0
a_3_7: 0.0
a_4_0: 1.0
a_4_1: 0.0
a_4_2: 0.0
a_4_3: 0.0
a_4_4: -0.0
a_4_5: 0.0
a_4_6: 0.0
a_4_7: 0.0
a_5_0: 1.0
a_5_1: 0.0
a_5_2: 0.0
a_5_3: 0.0
a_5_4: 0.0
a_5_5: -0.0
a_5_6: 0.0
a_5_7: 0.0
a_6_0: 1.0
a_6_1: 0.0
a_6_2: 0.0
a_6_3: 0.0
a_6_4: 0.0
a_6_5: 0.0
a_6_6: -0.0
a_6_7: 0.0
a_7_0: 0.0
a_7_1: 1.0
a_7_2: 0.0
a_7_3: 0.0
a_7_4: 0.0
a_7_5: 0.0
a_7_6: 0.0
a_7_7: -0.0
b_0_0: 1.0
b_0_1: 0.0
b_0_2: 0.0
b_0_3: 0.0
b_0_4: 0.0
b_0_5: 0.0
b_0_6: 1.0
b_0_7: 0.0
b_1_0: 0.0
b_1_1: 1.0
b_1_2: 1.0
b_1_3: 0.0
b_1_4: 0.0
b_1_5: 0.0
b_1_6: 0.0
b_1_7: 0.0
b_2_0: 0.0
b_2_1: 0.0
b_2_2: 1.0
b_2_3: 0.0
b_2_4: 1.0
b_2_5: 0.0
b_2_6: 0.0
b_2_7: 1.0
b_3_0: 1.0
b_3_1: 0.0
b_3_2: 0.0
b_3_3: 1.0
b_3_4: 0.0
b_3_5: 1.0
b_3_6: 0.0
b_3_7: 0.0
b_4_0: 0.0
b_4_1: 0.0
b_4_2: 0.0
b_4_3: 0.0
b_4_4: 1.0
b_4_5: 1.0
b_4_6: 0.0
b_4_7: 1.0
b_5_0: 0.0
b_5_1: 0.0
b_5_2: 1.0
b_5_3: 1.0
b_5_4: 0.0
b_5_5: 1.0
b_5_6: 0.0
b_5_7: 0.0
b_6_0: 0.0
b_6_1: 1.0
b_6_2: 0.0
b_6_3: 0.0
b_6_4: 1.0
b_6_5: 0.0
b_6_6: 1.0
b_6_7: 0.0
b_7_0: 0.0
b_7_1: 0.0
b_7_2: 0.0
b_7_3: 1.0
b_7_4: 0.0
b_7_5: 0.0
b_7_6: 1.0
b_7_7: 1.0
A_0: 0.0
B_0: 1.0
C_0: 3.0
D_0: 1.0
Cin_0: 5.0
Cout_0: 5.0
A_1: 0.0
B_1: 1.0
C_1: 3.0
D_1: 1.0
Cin_1: 5.0
Cout_1: 5.0
A_2: 1.0
B_2: 2.0
C_2: 0.0
D_2: 2.0
Cin_2: 5.0
Cout_2: 5.0
A_3: 1.0
B_3: 2.0
C_3: 0.0
D_3: 2.0
Cin_3: 5.0
Cout_3: 5.0
A_4: 1.0
B_4: 2.0
C_4: 0.0
D_4: 2.0
Cin_4: 5.0
Cout_4: 5.0
A_5: 1.0
B_5: 2.0
C_5: 0.0
D_5: 2.0
Cin_5: 5.0
Cout_5: 5.0
A_6: 1.0
B_6: 2.0
C_6: 0.0
D_6: 2.0
Cin_6: 5.0
Cout_6: 5.0
A_7: 1.0
B_7: 2.0
C_7: 0.0
D_7: 2.0
Cin_7: 5.0
Cout_7: 5.0
Comm_Volume: 5.0
Allocation Matrix:
0  6  5  5  6  4  0  4  
3  1  1  7  2  3  7  2  
/  /  /  /  /  /  /  /  
/  /  /  /  /  /  /  /  
/  /  /  /  /  /  /  /  
/  /  /  /  /  /  /  /  
/  /  /  /  /  /  /  /  
/  /  /  /  /  /  /  /  
